NAME          DCAP_3_4_2_200_SS137
ROWS
 N  OBJ
 L  CON1
 L  CON2
 L  CON3
 L  CON4
 L  CON5
 L  CON6
 L  CON7
 L  CON8
 L  CON9
 L  CON10
 L  CON11
 L  CON12
 E  CON13
 E  CON14
 E  CON15
 E  CON16
 E  CON17
 E  CON18
 E  CON19
 E  CON20
COLUMNS
    x[1,1]    OBJ       6.180167      CON1      1.000000    
    x[1,1]    CON7      -1.000000     CON8      -1.000000   
    x[1,2]    OBJ       5.039546      CON2      1.000000    
    x[1,2]    CON8      -1.000000   
    x[2,1]    OBJ       6.732585      CON3      1.000000    
    x[2,1]    CON9      -1.000000     CON10     -1.000000   
    x[2,2]    OBJ       7.443064      CON4      1.000000    
    x[2,2]    CON10     -1.000000   
    x[3,1]    OBJ       6.563535      CON5      1.000000    
    x[3,1]    CON11     -1.000000     CON12     -1.000000   
    x[3,2]    OBJ       6.054841      CON6      1.000000    
    x[3,2]    CON12     -1.000000   
    MARKER    'MARKER'                'INTORG'
    u[1,1]    OBJ       48.076654     CON1      -1.000000   
    u[1,2]    OBJ       49.466655     CON2      -1.000000   
    u[2,1]    OBJ       49.996186     CON3      -1.000000   
    u[2,2]    OBJ       32.230043     CON4      -1.000000   
    u[3,1]    OBJ       20.066487     CON5      -1.000000   
    u[3,2]    OBJ       27.484319     CON6      -1.000000   
    y[1,1,1]  OBJ       8.295512      CON7      0.565354    
    y[1,1,1]  CON13     1.000000    
    y[1,1,2]  OBJ       6.027651      CON8      1.182041    
    y[1,1,2]  CON14     1.000000    
    y[1,2,1]  OBJ       8.464274      CON7      0.576313    
    y[1,2,1]  CON15     1.000000    
    y[1,2,2]  OBJ       9.958563      CON8      0.507756    
    y[1,2,2]  CON16     1.000000    
    y[1,3,1]  OBJ       7.466503      CON7      1.110752    
    y[1,3,1]  CON17     1.000000    
    y[1,3,2]  OBJ       6.251948      CON8      1.362714    
    y[1,3,2]  CON18     1.000000    
    y[1,4,1]  OBJ       6.263456      CON7      0.767166    
    y[1,4,1]  CON19     1.000000    
    y[1,4,2]  OBJ       6.595944      CON8      0.851741    
    y[1,4,2]  CON20     1.000000    
    y[2,1,1]  OBJ       6.973958      CON9      0.565354    
    y[2,1,1]  CON13     1.000000    
    y[2,1,2]  OBJ       9.780339      CON10     1.182041    
    y[2,1,2]  CON14     1.000000    
    y[2,2,1]  OBJ       9.614838      CON9      0.576313    
    y[2,2,1]  CON15     1.000000    
    y[2,2,2]  OBJ       5.313994      CON10     0.507756    
    y[2,2,2]  CON16     1.000000    
    y[2,3,1]  OBJ       8.926665      CON9      1.110752    
    y[2,3,1]  CON17     1.000000    
    y[2,3,2]  OBJ       8.135079      CON10     1.362714    
    y[2,3,2]  CON18     1.000000    
    y[2,4,1]  OBJ       6.550582      CON9      0.767166    
    y[2,4,1]  CON19     1.000000    
    y[2,4,2]  OBJ       8.882391      CON10     0.851741    
    y[2,4,2]  CON20     1.000000    
    y[3,1,1]  OBJ       6.627823      CON11     0.565354    
    y[3,1,1]  CON13     1.000000    
    y[3,1,2]  OBJ       9.641705      CON12     1.182041    
    y[3,1,2]  CON14     1.000000    
    y[3,2,1]  OBJ       6.596085      CON11     0.576313    
    y[3,2,1]  CON15     1.000000    
    y[3,2,2]  OBJ       7.465345      CON12     0.507756    
    y[3,2,2]  CON16     1.000000    
    y[3,3,1]  OBJ       8.940779      CON11     1.110752    
    y[3,3,1]  CON17     1.000000    
    y[3,3,2]  OBJ       6.746532      CON12     1.362714    
    y[3,3,2]  CON18     1.000000    
    y[3,4,1]  OBJ       8.462707      CON11     0.767166    
    y[3,4,1]  CON19     1.000000    
    y[3,4,2]  OBJ       9.025960      CON12     0.851741    
    y[3,4,2]  CON20     1.000000    
    z[1,1]    OBJ       991.933272    CON13     1.000000    
    z[1,2]    OBJ       944.591795    CON14     1.000000    
    z[2,1]    OBJ       762.058878    CON15     1.000000    
    z[2,2]    OBJ       926.099945    CON16     1.000000    
    z[3,1]    OBJ       552.549048    CON17     1.000000    
    z[3,2]    OBJ       881.635705    CON18     1.000000    
    z[4,1]    OBJ       636.155219    CON19     1.000000    
    z[4,2]    OBJ       794.356617    CON20     1.000000    
    MARKER    'MARKER'                 'INTEND'
RHS
    RHS       CON1      -0.000000     CON2      -0.000000   
    RHS       CON3      -0.000000     CON4      -0.000000   
    RHS       CON5      -0.000000     CON6      -0.000000   
    RHS       CON7      -0.000000     CON8      -0.000000   
    RHS       CON9      -0.000000     CON10     -0.000000   
    RHS       CON11     -0.000000     CON12     -0.000000   
    RHS       CON13     1.000000      CON14     1.000000    
    RHS       CON15     1.000000      CON16     1.000000    
    RHS       CON17     1.000000      CON18     1.000000    
    RHS       CON19     1.000000      CON20     1.000000    
BOUNDS
 BV BOUND     u[1,1]  
 BV BOUND     u[1,2]  
 BV BOUND     u[2,1]  
 BV BOUND     u[2,2]  
 BV BOUND     u[3,1]  
 BV BOUND     u[3,2]  
 BV BOUND     y[1,1,1]
 BV BOUND     y[1,1,2]
 BV BOUND     y[1,2,1]
 BV BOUND     y[1,2,2]
 BV BOUND     y[1,3,1]
 BV BOUND     y[1,3,2]
 BV BOUND     y[1,4,1]
 BV BOUND     y[1,4,2]
 BV BOUND     y[2,1,1]
 BV BOUND     y[2,1,2]
 BV BOUND     y[2,2,1]
 BV BOUND     y[2,2,2]
 BV BOUND     y[2,3,1]
 BV BOUND     y[2,3,2]
 BV BOUND     y[2,4,1]
 BV BOUND     y[2,4,2]
 BV BOUND     y[3,1,1]
 BV BOUND     y[3,1,2]
 BV BOUND     y[3,2,1]
 BV BOUND     y[3,2,2]
 BV BOUND     y[3,3,1]
 BV BOUND     y[3,3,2]
 BV BOUND     y[3,4,1]
 BV BOUND     y[3,4,2]
 BV BOUND     z[1,1]  
 BV BOUND     z[1,2]  
 BV BOUND     z[2,1]  
 BV BOUND     z[2,2]  
 BV BOUND     z[3,1]  
 BV BOUND     z[3,2]  
 BV BOUND     z[4,1]  
 BV BOUND     z[4,2]  
ENDATA
